0000000000000000
0011100000011100
0001110000011100
0000111000111000
0001111100110000
0001110111100000
0001110111100000
0001110011100000
0001110001110000
0001110000111000
0001110000011100
0000000000000000
0000000000000000
0000000000000000
0000000000000000
0000000000000000